47
100
70	1
69	1
68	3
67	3
66	1
65	1
64	1
62	4
61	3
59	1
58	2
57	1
56	4
55	1
54	2
53	1
51	1
50	2
49	5
48	4
47	1
46	4
45	4
44	4
43	1
42	2
41	1
40	1
39	1
38	2
37	2
36	1
35	1
34	2
33	4
32	2
31	2
30	2
29	1
28	1
27	1
26	2
25	6
24	2
22	3
21	1
20	4
